p cnf 963 2472
51 -2 -696 0
-51 2 0
-51 696 0
52 -51 -3 0
-52 51 0
-52 3 0
53 -5 -4 0
-53 5 0
-53 4 0
54 -53 -1 0
-54 53 0
-54 1 0
55 -697 -698 0
-55 697 0
-55 698 0
56 -7 -699 0
-56 7 0
-56 699 0
57 -56 -700 0
-57 56 0
-57 700 0
58 -701 -55 0
-58 701 0
-58 55 0
59 -702 -703 0
-59 702 0
-59 703 0
60 -59 -704 0
-60 59 0
-60 704 0
61 -705 -58 0
-61 705 0
-61 58 0
62 -13 -706 0
-62 13 0
-62 706 0
63 -62 -8 0
-63 62 0
-63 8 0
64 -707 -61 0
-64 707 0
-64 61 0
65 -708 -14 0
-65 708 0
-65 14 0
66 -65 -16 0
-66 65 0
-66 16 0
67 -709 -64 0
-67 709 0
-67 64 0
68 -18 -17 0
-68 18 0
-68 17 0
69 -68 -19 0
-69 68 0
-69 19 0
70 -710 -67 0
-70 710 0
-70 67 0
71 -711 -20 0
-71 711 0
-71 20 0
72 -71 -712 0
-72 71 0
-72 712 0
73 -713 -70 0
-73 713 0
-73 70 0
74 -23 -18 0
-74 23 0
-74 18 0
75 -74 -7 0
-75 74 0
-75 7 0
76 -714 -73 0
-76 714 0
-76 73 0
77 -715 -24 0
-77 715 0
-77 24 0
78 -77 -2 0
-78 77 0
-78 2 0
79 -716 -76 0
-79 716 0
-79 76 0
80 -717 -702 0
-80 717 0
-80 702 0
81 -80 -718 0
-81 80 0
-81 718 0
82 -719 -79 0
-82 719 0
-82 79 0
83 -720 -721 0
-83 720 0
-83 721 0
84 -83 -702 0
-84 83 0
-84 702 0
85 -722 -82 0
-85 722 0
-85 82 0
86 -723 -29 0
-86 723 0
-86 29 0
87 -86 -700 0
-87 86 0
-87 700 0
88 -724 -85 0
-88 724 0
-88 85 0
89 -31 -717 0
-89 31 0
-89 717 0
90 -89 -8 0
-90 89 0
-90 8 0
91 -725 -88 0
-91 725 0
-91 88 0
92 -726 -15 0
-92 726 0
-92 15 0
93 -92 -699 0
-93 92 0
-93 699 0
94 -727 -91 0
-94 727 0
-94 91 0
95 -30 -702 0
-95 30 0
-95 702 0
96 -95 -728 0
-96 95 0
-96 728 0
97 -729 -94 0
-97 729 0
-97 94 0
98 -730 -13 0
-98 730 0
-98 13 0
99 -98 -2 0
-99 98 0
-99 2 0
100 -731 -97 0
-100 731 0
-100 97 0
101 -23 -702 0
-101 23 0
-101 702 0
102 -101 -732 0
-102 101 0
-102 732 0
103 -733 -100 0
-103 733 0
-103 100 0
104 -734 -26 0
-104 734 0
-104 26 0
105 -104 -711 0
-105 104 0
-105 711 0
106 -735 -103 0
-106 735 0
-106 103 0
107 -35 -706 0
-107 35 0
-107 706 0
108 -107 -736 0
-108 107 0
-108 736 0
109 -737 -106 0
-109 737 0
-109 106 0
110 -738 -739 0
-110 738 0
-110 739 0
111 -110 -23 0
-111 110 0
-111 23 0
112 -740 -109 0
-112 740 0
-112 109 0
113 -38 -37 0
-113 38 0
-113 37 0
114 -113 -39 0
-114 113 0
-114 39 0
115 -741 -112 0
-115 741 0
-115 112 0
116 -40 -700 0
-116 40 0
-116 700 0
117 -116 -728 0
-117 116 0
-117 728 0
118 -742 -115 0
-118 742 0
-118 115 0
119 -38 -702 0
-119 38 0
-119 702 0
120 -119 -743 0
-120 119 0
-120 743 0
121 -744 -118 0
-121 744 0
-121 118 0
122 -745 -20 0
-122 745 0
-122 20 0
123 -122 -13 0
-123 122 0
-123 13 0
124 -746 -121 0
-124 746 0
-124 121 0
125 -739 -33 0
-125 739 0
-125 33 0
126 -125 -27 0
-126 125 0
-126 27 0
127 -747 -124 0
-127 747 0
-127 124 0
128 -708 -699 0
-128 708 0
-128 699 0
129 -128 -748 0
-129 128 0
-129 748 0
130 -749 -127 0
-130 749 0
-130 127 0
131 -739 -2 0
-131 739 0
-131 2 0
132 -131 -27 0
-132 131 0
-132 27 0
133 -750 -130 0
-133 750 0
-133 130 0
134 -42 -36 0
-134 42 0
-134 36 0
135 -134 -39 0
-135 134 0
-135 39 0
136 -751 -133 0
-136 751 0
-136 133 0
137 -40 -706 0
-137 40 0
-137 706 0
138 -137 -10 0
-138 137 0
-138 10 0
139 -752 -136 0
-139 752 0
-139 136 0
140 -721 -17 0
-140 721 0
-140 17 0
141 -140 -7 0
-141 140 0
-141 7 0
142 -753 -139 0
-142 753 0
-142 139 0
143 -748 -754 0
-143 748 0
-143 754 0
144 -143 -718 0
-144 143 0
-144 718 0
145 -755 -142 0
-145 755 0
-145 142 0
146 -31 -711 0
-146 31 0
-146 711 0
147 -146 -704 0
-147 146 0
-147 704 0
148 -756 -145 0
-148 756 0
-148 145 0
149 -35 -732 0
-149 35 0
-149 732 0
150 -149 -43 0
-150 149 0
-150 43 0
151 -757 -148 0
-151 757 0
-151 148 0
152 -24 -15 0
-152 24 0
-152 15 0
153 -152 -706 0
-153 152 0
-153 706 0
154 -758 -151 0
-154 758 0
-154 151 0
155 -44 -726 0
-155 44 0
-155 726 0
156 -155 -39 0
-156 155 0
-156 39 0
157 -759 -154 0
-157 759 0
-157 154 0
158 -25 -13 0
-158 25 0
-158 13 0
159 -158 -45 0
-159 158 0
-159 45 0
160 -760 -157 0
-160 760 0
-160 157 0
161 -732 -19 0
-161 732 0
-161 19 0
162 -161 -16 0
-162 161 0
-162 16 0
163 -761 -160 0
-163 761 0
-163 160 0
164 -702 -8 0
-164 702 0
-164 8 0
165 -164 -27 0
-165 164 0
-165 27 0
166 -762 -163 0
-166 762 0
-166 163 0
167 -763 -1 0
-167 763 0
-167 1 0
168 -167 -764 0
-168 167 0
-168 764 0
169 -765 -166 0
-169 765 0
-169 166 0
170 -766 -718 0
-170 766 0
-170 718 0
171 -170 -16 0
-171 170 0
-171 16 0
172 -767 -169 0
-172 767 0
-172 169 0
173 -768 -5 0
-173 768 0
-173 5 0
174 -173 -12 0
-174 173 0
-174 12 0
175 -769 -172 0
-175 769 0
-175 172 0
176 -47 -770 0
-176 47 0
-176 770 0
177 -176 -39 0
-177 176 0
-177 39 0
178 -771 -175 0
-178 771 0
-178 175 0
179 -768 -708 0
-179 768 0
-179 708 0
180 -179 -772 0
-180 179 0
-180 772 0
181 -773 -178 0
-181 773 0
-181 178 0
182 -766 -774 0
-182 766 0
-182 774 0
183 -182 -30 0
-183 182 0
-183 30 0
184 -775 -181 0
-184 775 0
-184 181 0
185 -776 -777 0
-185 776 0
-185 777 0
186 -185 -3 0
-186 185 0
-186 3 0
187 -778 -184 0
-187 778 0
-187 184 0
188 -33 -717 0
-188 33 0
-188 717 0
189 -188 -779 0
-189 188 0
-189 779 0
190 -780 -187 0
-190 780 0
-190 187 0
191 -717 -715 0
-191 717 0
-191 715 0
192 -191 -781 0
-192 191 0
-192 781 0
193 -782 -190 0
-193 782 0
-193 190 0
194 -779 -22 0
-194 779 0
-194 22 0
195 -194 -700 0
-195 194 0
-195 700 0
196 -783 -193 0
-196 783 0
-196 193 0
197 -31 -29 0
-197 31 0
-197 29 0
198 -197 -699 0
-198 197 0
-198 699 0
199 -784 -196 0
-199 784 0
-199 196 0
200 -776 -717 0
-200 776 0
-200 717 0
201 -200 -3 0
-201 200 0
-201 3 0
202 -785 -199 0
-202 785 0
-202 199 0
203 -22 -7 0
-203 22 0
-203 7 0
204 -203 -786 0
-204 203 0
-204 786 0
205 -787 -202 0
-205 787 0
-205 202 0
206 -48 -25 0
-206 48 0
-206 25 0
207 -206 -788 0
-207 206 0
-207 788 0
208 -789 -205 0
-208 789 0
-208 205 0
209 -36 -699 0
-209 36 0
-209 699 0
210 -209 -11 0
-210 209 0
-210 11 0
211 -790 -208 0
-211 790 0
-211 208 0
212 -21 -19 0
-212 21 0
-212 19 0
213 -212 -27 0
-213 212 0
-213 27 0
214 -791 -211 0
-214 791 0
-214 211 0
215 -164 -728 0
-215 164 0
-215 728 0
216 -792 -214 0
-216 792 0
-216 214 0
217 -33 -25 0
-217 33 0
-217 25 0
218 -217 -44 0
-218 217 0
-218 44 0
219 -793 -216 0
-219 793 0
-219 216 0
220 -794 -22 0
-220 794 0
-220 22 0
221 -220 -38 0
-221 220 0
-221 38 0
222 -795 -219 0
-222 795 0
-222 219 0
223 -18 -699 0
-223 18 0
-223 699 0
224 -223 -788 0
-224 223 0
-224 788 0
225 -796 -222 0
-225 796 0
-225 222 0
226 -37 -702 0
-226 37 0
-226 702 0
227 -226 -797 0
-227 226 0
-227 797 0
228 -798 -225 0
-228 798 0
-228 225 0
229 -34 -715 0
-229 34 0
-229 715 0
230 -229 -766 0
-230 229 0
-230 766 0
231 -799 -228 0
-231 799 0
-231 228 0
232 -723 -1 0
-232 723 0
-232 1 0
233 -232 -776 0
-233 232 0
-233 776 0
234 -800 -231 0
-234 800 0
-234 231 0
235 -36 -708 0
-235 36 0
-235 708 0
236 -235 -19 0
-236 235 0
-236 19 0
237 -801 -234 0
-237 801 0
-237 234 0
238 -83 -11 0
-238 83 0
-238 11 0
239 -802 -237 0
-239 802 0
-239 237 0
240 -12 -703 0
-240 12 0
-240 703 0
241 -240 -699 0
-241 240 0
-241 699 0
242 -803 -239 0
-242 803 0
-242 239 0
243 -10 -696 0
-243 10 0
-243 696 0
244 -243 -728 0
-244 243 0
-244 728 0
245 -804 -242 0
-245 804 0
-245 242 0
246 -805 -18 0
-246 805 0
-246 18 0
247 -246 -764 0
-247 246 0
-247 764 0
248 -806 -245 0
-248 806 0
-248 245 0
249 -706 -5 0
-249 706 0
-249 5 0
250 -249 -38 0
-250 249 0
-250 38 0
251 -807 -248 0
-251 807 0
-251 248 0
252 -39 -4 0
-252 39 0
-252 4 0
253 -252 -11 0
-253 252 0
-253 11 0
254 -808 -251 0
-254 808 0
-254 251 0
255 -47 -35 0
-255 47 0
-255 35 0
256 -255 -42 0
-256 255 0
-256 42 0
257 -809 -254 0
-257 809 0
-257 254 0
258 -44 -794 0
-258 44 0
-258 794 0
259 -258 -704 0
-259 258 0
-259 704 0
260 -810 -257 0
-260 810 0
-260 257 0
261 -46 -738 0
-261 46 0
-261 738 0
262 -261 -11 0
-262 261 0
-262 11 0
263 -811 -260 0
-263 811 0
-263 260 0
264 -47 -730 0
-264 47 0
-264 730 0
265 -264 -46 0
-265 264 0
-265 46 0
266 -812 -263 0
-266 812 0
-266 263 0
267 -774 -715 0
-267 774 0
-267 715 0
268 -267 -736 0
-268 267 0
-268 736 0
269 -813 -266 0
-269 813 0
-269 266 0
270 -711 -13 0
-270 711 0
-270 13 0
271 -270 -779 0
-271 270 0
-271 779 0
272 -814 -269 0
-272 814 0
-272 269 0
273 -40 -6 0
-273 40 0
-273 6 0
274 -273 -50 0
-274 273 0
-274 50 0
275 -815 -272 0
-275 815 0
-275 272 0
276 -723 -816 0
-276 723 0
-276 816 0
277 -276 -797 0
-277 276 0
-277 797 0
278 -817 -275 0
-278 817 0
-278 275 0
279 -818 -17 0
-279 818 0
-279 17 0
280 -279 -26 0
-280 279 0
-280 26 0
281 -819 -278 0
-281 819 0
-281 278 0
282 -40 -818 0
-282 40 0
-282 818 0
283 -282 -30 0
-283 282 0
-283 30 0
284 -820 -281 0
-284 820 0
-284 281 0
285 -34 -14 0
-285 34 0
-285 14 0
286 -285 -723 0
-286 285 0
-286 723 0
287 -821 -284 0
-287 821 0
-287 284 0
288 -712 -706 0
-288 712 0
-288 706 0
289 -288 -27 0
-289 288 0
-289 27 0
290 -822 -287 0
-290 822 0
-290 287 0
291 -728 -708 0
-291 728 0
-291 708 0
292 -291 -743 0
-292 291 0
-292 743 0
293 -823 -290 0
-293 823 0
-293 290 0
294 -28 -12 0
-294 28 0
-294 12 0
295 -294 -48 0
-295 294 0
-295 48 0
296 -824 -293 0
-296 824 0
-296 293 0
297 -825 -1 0
-297 825 0
-297 1 0
298 -297 -700 0
-298 297 0
-298 700 0
299 -826 -296 0
-299 826 0
-299 296 0
300 -703 -816 0
-300 703 0
-300 816 0
301 -300 -11 0
-301 300 0
-301 11 0
302 -827 -299 0
-302 827 0
-302 299 0
303 -828 -14 0
-303 828 0
-303 14 0
304 -303 -723 0
-304 303 0
-304 723 0
305 -829 -302 0
-305 829 0
-305 302 0
306 -25 -745 0
-306 25 0
-306 745 0
307 -306 -718 0
-307 306 0
-307 718 0
308 -830 -305 0
-308 830 0
-308 305 0
309 -772 -732 0
-309 772 0
-309 732 0
310 -309 -41 0
-310 309 0
-310 41 0
311 -831 -308 0
-311 831 0
-311 308 0
312 -738 -12 0
-312 738 0
-312 12 0
313 -312 -743 0
-313 312 0
-313 743 0
314 -832 -311 0
-314 832 0
-314 311 0
315 -736 -10 0
-315 736 0
-315 10 0
316 -315 -779 0
-316 315 0
-316 779 0
317 -833 -314 0
-317 833 0
-317 314 0
318 -13 -2 0
-318 13 0
-318 2 0
319 -318 -825 0
-319 318 0
-319 825 0
320 -834 -317 0
-320 834 0
-320 317 0
321 -768 -706 0
-321 768 0
-321 706 0
322 -321 -743 0
-322 321 0
-322 743 0
323 -835 -320 0
-323 835 0
-323 320 0
324 -39 -721 0
-324 39 0
-324 721 0
325 -324 -11 0
-325 324 0
-325 11 0
326 -836 -323 0
-326 836 0
-326 323 0
327 -39 -36 0
-327 39 0
-327 36 0
328 -327 -781 0
-328 327 0
-328 781 0
329 -837 -326 0
-329 837 0
-329 326 0
330 -723 -703 0
-330 723 0
-330 703 0
331 -330 -838 0
-331 330 0
-331 838 0
332 -839 -329 0
-332 839 0
-332 329 0
333 -732 -11 0
-333 732 0
-333 11 0
334 -333 -48 0
-334 333 0
-334 48 0
335 -840 -332 0
-335 840 0
-335 332 0
336 -47 -708 0
-336 47 0
-336 708 0
337 -336 -786 0
-337 336 0
-337 786 0
338 -841 -335 0
-338 841 0
-338 335 0
339 -715 -730 0
-339 715 0
-339 730 0
340 -339 -44 0
-340 339 0
-340 44 0
341 -842 -338 0
-341 842 0
-341 338 0
342 -779 -5 0
-342 779 0
-342 5 0
343 -342 -48 0
-343 342 0
-343 48 0
344 -843 -341 0
-344 843 0
-344 341 0
345 -28 -24 0
-345 28 0
-345 24 0
346 -345 -45 0
-346 345 0
-346 45 0
347 -844 -344 0
-347 844 0
-347 344 0
348 -721 -9 0
-348 721 0
-348 9 0
349 -348 -22 0
-349 348 0
-349 22 0
350 -845 -347 0
-350 845 0
-350 347 0
351 -781 -24 0
-351 781 0
-351 24 0
352 -351 -743 0
-352 351 0
-352 743 0
353 -846 -350 0
-353 846 0
-353 350 0
354 -50 -19 0
-354 50 0
-354 19 0
355 -354 -743 0
-355 354 0
-355 743 0
356 -847 -353 0
-356 847 0
-356 353 0
357 -46 -44 0
-357 46 0
-357 44 0
358 -357 -16 0
-358 357 0
-358 16 0
359 -848 -356 0
-359 848 0
-359 356 0
360 -47 -720 0
-360 47 0
-360 720 0
361 -360 -11 0
-361 360 0
-361 11 0
362 -849 -359 0
-362 849 0
-362 359 0
363 -770 -24 0
-363 770 0
-363 24 0
364 -363 -27 0
-364 363 0
-364 27 0
365 -850 -362 0
-365 850 0
-365 362 0
366 -22 -19 0
-366 22 0
-366 19 0
367 -366 -38 0
-367 366 0
-367 38 0
368 -851 -365 0
-368 851 0
-368 365 0
369 -768 -25 0
-369 768 0
-369 25 0
370 -369 -702 0
-370 369 0
-370 702 0
371 -852 -368 0
-371 852 0
-371 368 0
372 -706 -853 0
-372 706 0
-372 853 0
373 -372 -43 0
-373 372 0
-373 43 0
374 -854 -371 0
-374 854 0
-374 371 0
375 -734 -805 0
-375 734 0
-375 805 0
376 -375 -797 0
-376 375 0
-376 797 0
377 -855 -374 0
-377 855 0
-377 374 0
378 -21 -721 0
-378 21 0
-378 721 0
379 -378 -43 0
-379 378 0
-379 43 0
380 -856 -377 0
-380 856 0
-380 377 0
381 -18 -853 0
-381 18 0
-381 853 0
382 -381 -772 0
-382 381 0
-382 772 0
383 -857 -380 0
-383 857 0
-383 380 0
384 -42 -712 0
-384 42 0
-384 712 0
385 -384 -41 0
-385 384 0
-385 41 0
386 -858 -383 0
-386 858 0
-386 383 0
387 -47 -1 0
-387 47 0
-387 1 0
388 -387 -28 0
-388 387 0
-388 28 0
389 -859 -386 0
-389 859 0
-389 386 0
390 -46 -754 0
-390 46 0
-390 754 0
391 -390 -781 0
-391 390 0
-391 781 0
392 -860 -389 0
-392 860 0
-392 389 0
393 -828 -7 0
-393 828 0
-393 7 0
394 -393 -27 0
-394 393 0
-394 27 0
395 -861 -392 0
-395 861 0
-395 392 0
396 -18 -14 0
-396 18 0
-396 14 0
397 -396 -786 0
-397 396 0
-397 786 0
398 -862 -395 0
-398 862 0
-398 395 0
399 -768 -717 0
-399 768 0
-399 717 0
400 -399 -45 0
-400 399 0
-400 45 0
401 -863 -398 0
-401 863 0
-401 398 0
402 -37 -35 0
-402 37 0
-402 35 0
403 -402 -44 0
-403 402 0
-403 44 0
404 -864 -401 0
-404 864 0
-404 401 0
405 -772 -699 0
-405 772 0
-405 699 0
406 -405 -732 0
-406 405 0
-406 732 0
407 -865 -404 0
-407 865 0
-407 404 0
408 -48 -702 0
-408 48 0
-408 702 0
409 -408 -781 0
-409 408 0
-409 781 0
410 -866 -407 0
-410 866 0
-410 407 0
411 -711 -699 0
-411 711 0
-411 699 0
412 -411 -41 0
-412 411 0
-412 41 0
413 -867 -410 0
-413 867 0
-413 410 0
414 -825 -739 0
-414 825 0
-414 739 0
415 -414 -30 0
-415 414 0
-415 30 0
416 -868 -413 0
-416 868 0
-416 413 0
417 -711 -818 0
-417 711 0
-417 818 0
418 -417 -22 0
-418 417 0
-418 22 0
419 -869 -416 0
-419 869 0
-419 416 0
420 -134 -48 0
-420 134 0
-420 48 0
421 -870 -419 0
-421 870 0
-421 419 0
422 -41 -774 0
-422 41 0
-422 774 0
423 -422 -8 0
-423 422 0
-423 8 0
424 -871 -421 0
-424 871 0
-424 421 0
425 -22 -15 0
-425 22 0
-425 15 0
426 -425 -718 0
-426 425 0
-426 718 0
427 -872 -424 0
-427 872 0
-427 424 0
428 -42 -732 0
-428 42 0
-428 732 0
429 -428 -50 0
-429 428 0
-429 50 0
430 -873 -427 0
-430 873 0
-430 427 0
431 -24 -4 0
-431 24 0
-431 4 0
432 -431 -18 0
-432 431 0
-432 18 0
433 -874 -430 0
-433 874 0
-433 430 0
434 -770 -853 0
-434 770 0
-434 853 0
435 -434 -816 0
-435 434 0
-435 816 0
436 -875 -433 0
-436 875 0
-436 433 0
437 -14 -696 0
-437 14 0
-437 696 0
438 -437 -838 0
-438 437 0
-438 838 0
439 -876 -436 0
-439 876 0
-439 436 0
440 -188 -43 0
-440 188 0
-440 43 0
441 -877 -439 0
-441 877 0
-441 439 0
442 -828 -711 0
-442 828 0
-442 711 0
443 -442 -720 0
-443 442 0
-443 720 0
444 -878 -441 0
-444 878 0
-444 441 0
445 -20 -754 0
-445 20 0
-445 754 0
446 -445 -838 0
-446 445 0
-446 838 0
447 -879 -444 0
-447 879 0
-447 444 0
448 -768 -794 0
-448 768 0
-448 794 0
449 -448 -764 0
-449 448 0
-449 764 0
450 -880 -447 0
-450 880 0
-450 447 0
451 -774 -853 0
-451 774 0
-451 853 0
452 -451 -42 0
-452 451 0
-452 42 0
453 -881 -450 0
-453 881 0
-453 450 0
454 -828 -2 0
-454 828 0
-454 2 0
455 -454 -16 0
-455 454 0
-455 16 0
456 -882 -453 0
-456 882 0
-456 453 0
457 -34 -818 0
-457 34 0
-457 818 0
458 -457 -41 0
-458 457 0
-458 41 0
459 -883 -456 0
-459 883 0
-459 456 0
460 -36 -736 0
-460 36 0
-460 736 0
461 -460 -776 0
-461 460 0
-461 776 0
462 -884 -459 0
-462 884 0
-462 459 0
463 -14 -5 0
-463 14 0
-463 5 0
464 -463 -788 0
-464 463 0
-464 788 0
465 -885 -462 0
-465 885 0
-465 462 0
466 -39 -703 0
-466 39 0
-466 703 0
467 -466 -781 0
-467 466 0
-467 781 0
468 -886 -465 0
-468 886 0
-468 465 0
469 -44 -699 0
-469 44 0
-469 699 0
470 -469 -27 0
-470 469 0
-470 27 0
471 -887 -468 0
-471 887 0
-471 468 0
472 -23 -5 0
-472 23 0
-472 5 0
473 -472 -702 0
-473 472 0
-473 702 0
474 -888 -471 0
-474 888 0
-474 471 0
475 -712 -736 0
-475 712 0
-475 736 0
476 -475 -39 0
-476 475 0
-476 39 0
477 -889 -474 0
-477 889 0
-477 474 0
478 -715 -721 0
-478 715 0
-478 721 0
479 -478 -776 0
-479 478 0
-479 776 0
480 -890 -477 0
-480 890 0
-480 477 0
481 -786 -700 0
-481 786 0
-481 700 0
482 -481 -743 0
-482 481 0
-482 743 0
483 -891 -480 0
-483 891 0
-483 480 0
484 -35 -699 0
-484 35 0
-484 699 0
485 -484 -49 0
-485 484 0
-485 49 0
486 -892 -483 0
-486 892 0
-486 483 0
487 -828 -4 0
-487 828 0
-487 4 0
488 -487 -32 0
-488 487 0
-488 32 0
489 -893 -486 0
-489 893 0
-489 486 0
490 -42 -5 0
-490 42 0
-490 5 0
491 -490 -2 0
-491 490 0
-491 2 0
492 -894 -489 0
-492 894 0
-492 489 0
493 -734 -31 0
-493 734 0
-493 31 0
494 -493 -797 0
-494 493 0
-494 797 0
495 -895 -492 0
-495 895 0
-495 492 0
496 -712 -15 0
-496 712 0
-496 15 0
497 -496 -13 0
-497 496 0
-497 13 0
498 -896 -495 0
-498 896 0
-498 495 0
499 -128 -13 0
-499 128 0
-499 13 0
500 -897 -498 0
-500 897 0
-500 498 0
501 -706 -699 0
-501 706 0
-501 699 0
502 -501 -38 0
-502 501 0
-502 38 0
503 -898 -500 0
-503 898 0
-503 500 0
504 -18 -5 0
-504 18 0
-504 5 0
505 -504 -721 0
-505 504 0
-505 721 0
506 -899 -503 0
-506 899 0
-506 503 0
507 -732 -31 0
-507 732 0
-507 31 0
508 -507 -728 0
-508 507 0
-508 728 0
509 -900 -506 0
-509 900 0
-509 506 0
510 -764 -739 0
-510 764 0
-510 739 0
511 -510 -16 0
-511 510 0
-511 16 0
512 -901 -509 0
-512 901 0
-512 509 0
513 -781 -776 0
-513 781 0
-513 776 0
514 -513 -50 0
-514 513 0
-514 50 0
515 -902 -512 0
-515 902 0
-515 512 0
516 -27 -700 0
-516 27 0
-516 700 0
517 -516 -743 0
-517 516 0
-517 743 0
518 -903 -515 0
-518 903 0
-518 515 0
519 -717 -721 0
-519 717 0
-519 721 0
520 -519 -718 0
-520 519 0
-520 718 0
521 -904 -518 0
-521 904 0
-521 518 0
522 -770 -23 0
-522 770 0
-522 23 0
523 -522 -728 0
-523 522 0
-523 728 0
524 -905 -521 0
-524 905 0
-524 521 0
525 -794 -24 0
-525 794 0
-525 24 0
526 -525 -12 0
-526 525 0
-526 12 0
527 -906 -524 0
-527 906 0
-527 524 0
528 -702 -1 0
-528 702 0
-528 1 0
529 -528 -779 0
-529 528 0
-529 779 0
530 -907 -527 0
-530 907 0
-530 527 0
531 -805 -706 0
-531 805 0
-531 706 0
532 -531 -32 0
-532 531 0
-532 32 0
533 -908 -530 0
-533 908 0
-533 530 0
534 -47 -717 0
-534 47 0
-534 717 0
535 -534 -797 0
-535 534 0
-535 797 0
536 -909 -533 0
-536 909 0
-536 533 0
537 -46 -712 0
-537 46 0
-537 712 0
538 -537 -3 0
-538 537 0
-538 3 0
539 -910 -536 0
-539 910 0
-539 536 0
540 -33 -10 0
-540 33 0
-540 10 0
541 -540 -3 0
-541 540 0
-541 3 0
542 -911 -539 0
-542 911 0
-542 539 0
543 -715 -5 0
-543 715 0
-543 5 0
544 -543 -732 0
-544 543 0
-544 732 0
545 -912 -542 0
-545 912 0
-545 542 0
546 -721 -730 0
-546 721 0
-546 730 0
547 -546 -816 0
-547 546 0
-547 816 0
548 -913 -545 0
-548 913 0
-548 545 0
549 -794 -25 0
-549 794 0
-549 25 0
550 -549 -6 0
-550 549 0
-550 6 0
551 -914 -548 0
-551 914 0
-551 548 0
552 -92 -779 0
-552 92 0
-552 779 0
553 -915 -551 0
-553 915 0
-553 551 0
554 -35 -708 0
-554 35 0
-554 708 0
555 -554 -32 0
-555 554 0
-555 32 0
556 -916 -553 0
-556 916 0
-556 553 0
557 -42 -14 0
-557 42 0
-557 14 0
558 -557 -816 0
-558 557 0
-558 816 0
559 -917 -556 0
-559 917 0
-559 556 0
560 -717 -6 0
-560 717 0
-560 6 0
561 -560 -728 0
-561 560 0
-561 728 0
562 -918 -559 0
-562 918 0
-562 559 0
563 -828 -1 0
-563 828 0
-563 1 0
564 -563 -720 0
-564 563 0
-564 720 0
565 -919 -562 0
-565 919 0
-565 562 0
566 -15 -1 0
-566 15 0
-566 1 0
567 -566 -712 0
-567 566 0
-567 712 0
568 -920 -565 0
-568 920 0
-568 565 0
569 -770 -726 0
-569 770 0
-569 726 0
570 -569 -7 0
-570 569 0
-570 7 0
571 -921 -568 0
-571 921 0
-571 568 0
572 -738 -732 0
-572 738 0
-572 732 0
573 -572 -50 0
-573 572 0
-573 50 0
574 -922 -571 0
-574 922 0
-574 571 0
575 -734 -818 0
-575 734 0
-575 818 0
576 -575 -702 0
-576 575 0
-576 702 0
577 -923 -574 0
-577 923 0
-577 574 0
578 -19 -2 0
-578 19 0
-578 2 0
579 -578 -797 0
-579 578 0
-579 797 0
580 -924 -577 0
-580 924 0
-580 577 0
581 -12 -696 0
-581 12 0
-581 696 0
582 -581 -44 0
-582 581 0
-582 44 0
583 -925 -580 0
-583 925 0
-583 580 0
584 -766 -5 0
-584 766 0
-584 5 0
585 -584 -33 0
-585 584 0
-585 33 0
586 -926 -583 0
-586 926 0
-586 583 0
587 -748 -7 0
-587 748 0
-587 7 0
588 -587 -50 0
-588 587 0
-588 50 0
589 -927 -586 0
-589 927 0
-589 586 0
590 -40 -7 0
-590 40 0
-590 7 0
591 -590 -788 0
-591 590 0
-591 788 0
592 -928 -589 0
-592 928 0
-592 589 0
593 -736 -12 0
-593 736 0
-593 12 0
594 -593 -728 0
-594 593 0
-594 728 0
595 -929 -592 0
-595 929 0
-595 592 0
596 -28 -10 0
-596 28 0
-596 10 0
597 -596 -11 0
-597 596 0
-597 11 0
598 -930 -595 0
-598 930 0
-598 595 0
599 -838 -712 0
-599 838 0
-599 712 0
600 -599 -797 0
-600 599 0
-600 797 0
601 -931 -598 0
-601 931 0
-601 598 0
602 -766 -770 0
-602 766 0
-602 770 0
603 -602 -27 0
-603 602 0
-603 27 0
604 -932 -601 0
-604 932 0
-604 601 0
605 -711 -730 0
-605 711 0
-605 730 0
606 -605 -11 0
-606 605 0
-606 11 0
607 -933 -604 0
-607 933 0
-607 604 0
608 -739 -728 0
-608 739 0
-608 728 0
609 -608 -16 0
-609 608 0
-609 16 0
610 -934 -607 0
-610 934 0
-610 607 0
611 -712 -700 0
-611 712 0
-611 700 0
612 -611 -27 0
-612 611 0
-612 27 0
613 -935 -610 0
-613 935 0
-613 610 0
614 -723 -696 0
-614 723 0
-614 696 0
615 -614 -700 0
-615 614 0
-615 700 0
616 -936 -613 0
-616 936 0
-616 613 0
617 -47 -41 0
-617 47 0
-617 41 0
618 -617 -38 0
-618 617 0
-618 38 0
619 -937 -616 0
-619 937 0
-619 616 0
620 -711 -763 0
-620 711 0
-620 763 0
621 -620 -732 0
-621 620 0
-621 732 0
622 -938 -619 0
-622 938 0
-622 619 0
623 -23 -777 0
-623 23 0
-623 777 0
624 -623 -699 0
-624 623 0
-624 699 0
625 -939 -622 0
-625 939 0
-625 622 0
626 -40 -721 0
-626 40 0
-626 721 0
627 -626 -28 0
-627 626 0
-627 28 0
628 -940 -625 0
-628 940 0
-628 625 0
629 -781 -723 0
-629 781 0
-629 723 0
630 -629 -788 0
-630 629 0
-630 788 0
631 -941 -628 0
-631 941 0
-631 628 0
632 -39 -30 0
-632 39 0
-632 30 0
633 -632 -27 0
-633 632 0
-633 27 0
634 -942 -631 0
-634 942 0
-634 631 0
635 -25 -818 0
-635 25 0
-635 818 0
636 -635 -748 0
-636 635 0
-636 748 0
637 -943 -634 0
-637 943 0
-637 634 0
638 -34 -25 0
-638 34 0
-638 25 0
639 -638 -46 0
-639 638 0
-639 46 0
640 -944 -637 0
-640 944 0
-640 637 0
641 -9 -696 0
-641 9 0
-641 696 0
642 -641 -12 0
-642 641 0
-642 12 0
643 -945 -640 0
-643 945 0
-643 640 0
644 -42 -777 0
-644 42 0
-644 777 0
645 -644 -44 0
-645 644 0
-645 44 0
646 -946 -643 0
-646 946 0
-646 643 0
647 -717 -699 0
-647 717 0
-647 699 0
648 -647 -853 0
-648 647 0
-648 853 0
649 -947 -646 0
-649 947 0
-649 646 0
650 -41 -33 0
-650 41 0
-650 33 0
651 -650 -797 0
-651 650 0
-651 797 0
652 -948 -649 0
-652 948 0
-652 649 0
653 -40 -734 0
-653 40 0
-653 734 0
654 -653 -27 0
-654 653 0
-654 27 0
655 -949 -652 0
-655 949 0
-655 652 0
656 -838 -12 0
-656 838 0
-656 12 0
657 -656 -704 0
-657 656 0
-657 704 0
658 -950 -655 0
-658 950 0
-658 655 0
659 -35 -734 0
-659 35 0
-659 734 0
660 -659 -720 0
-660 659 0
-660 720 0
661 -951 -658 0
-661 951 0
-661 658 0
662 -23 -11 0
-662 23 0
-662 11 0
663 -662 -788 0
-663 662 0
-663 788 0
664 -952 -661 0
-664 952 0
-664 661 0
665 -720 -19 0
-665 720 0
-665 19 0
666 -665 -33 0
-666 665 0
-666 33 0
667 -953 -664 0
-667 953 0
-667 664 0
668 -42 -2 0
-668 42 0
-668 2 0
669 -668 -718 0
-669 668 0
-669 718 0
670 -954 -667 0
-670 954 0
-670 667 0
671 -715 -708 0
-671 715 0
-671 708 0
672 -671 -797 0
-672 671 0
-672 797 0
673 -955 -670 0
-673 955 0
-673 670 0
674 -611 -743 0
-674 611 0
-674 743 0
675 -956 -673 0
-675 956 0
-675 673 0
676 -24 -17 0
-676 24 0
-676 17 0
677 -676 -20 0
-677 676 0
-677 20 0
678 -957 -675 0
-678 957 0
-678 675 0
679 -40 -15 0
-679 40 0
-679 15 0
680 -679 -19 0
-680 679 0
-680 19 0
681 -958 -678 0
-681 958 0
-681 678 0
682 -83 -2 0
-682 83 0
-682 2 0
683 -959 -681 0
-683 959 0
-683 681 0
684 -41 -788 0
-684 41 0
-684 788 0
685 -684 -786 0
-685 684 0
-685 786 0
686 -960 -683 0
-686 960 0
-686 683 0
687 -29 -23 0
-687 29 0
-687 23 0
688 -687 -732 0
-688 687 0
-688 732 0
689 -961 -686 0
-689 961 0
-689 686 0
690 -35 -30 0
-690 35 0
-690 30 0
691 -690 -700 0
-691 690 0
-691 700 0
692 -962 -689 0
-692 962 0
-692 689 0
693 -41 -732 0
-693 41 0
-693 732 0
694 -693 -779 0
-694 693 0
-694 779 0
695 -963 -692 0
-695 963 0
-695 692 0
-696 -1 0
696 1 0
-697 -54 0
697 54 0
-698 -52 0
698 52 0
-699 -6 0
699 6 0
-700 -8 0
700 8 0
-701 -57 0
701 57 0
-702 -10 0
702 10 0
-703 -9 0
703 9 0
-704 -11 0
704 11 0
-705 -60 0
705 60 0
-706 -12 0
706 12 0
-707 -63 0
707 63 0
-708 -15 0
708 15 0
-709 -66 0
709 66 0
-710 -69 0
710 69 0
-711 -21 0
711 21 0
-712 -22 0
712 22 0
-713 -72 0
713 72 0
-714 -75 0
714 75 0
-715 -25 0
715 25 0
-716 -78 0
716 78 0
-717 -26 0
717 26 0
-718 -27 0
718 27 0
-719 -81 0
719 81 0
-720 -28 0
720 28 0
-721 -19 0
721 19 0
-722 -84 0
722 84 0
-723 -30 0
723 30 0
-724 -87 0
724 87 0
-725 -90 0
725 90 0
-726 -18 0
726 18 0
-727 -93 0
727 93 0
-728 -32 0
728 32 0
-729 -96 0
729 96 0
-730 -14 0
730 14 0
-731 -99 0
731 99 0
-732 -33 0
732 33 0
-733 -102 0
733 102 0
-734 -34 0
734 34 0
-735 -105 0
735 105 0
-736 -13 0
736 13 0
-737 -108 0
737 108 0
-738 -36 0
738 36 0
-739 -35 0
739 35 0
-740 -111 0
740 111 0
-741 -114 0
741 114 0
-742 -117 0
742 117 0
-743 -3 0
743 3 0
-744 -120 0
744 120 0
-745 -23 0
745 23 0
-746 -123 0
746 123 0
-747 -126 0
747 126 0
-748 -41 0
748 41 0
-749 -129 0
749 129 0
-750 -132 0
750 132 0
-751 -135 0
751 135 0
-752 -138 0
752 138 0
-753 -141 0
753 141 0
-754 -4 0
754 4 0
-755 -144 0
755 144 0
-756 -147 0
756 147 0
-757 -150 0
757 150 0
-758 -153 0
758 153 0
-759 -156 0
759 156 0
-760 -159 0
760 159 0
-761 -162 0
761 162 0
-762 -165 0
762 165 0
-763 -17 0
763 17 0
-764 -45 0
764 45 0
-765 -168 0
765 168 0
-766 -46 0
766 46 0
-767 -171 0
767 171 0
-768 -47 0
768 47 0
-769 -174 0
769 174 0
-770 -29 0
770 29 0
-771 -177 0
771 177 0
-772 -42 0
772 42 0
-773 -180 0
773 180 0
-774 -31 0
774 31 0
-775 -183 0
775 183 0
-776 -48 0
776 48 0
-777 -5 0
777 5 0
-778 -186 0
778 186 0
-779 -38 0
779 38 0
-780 -189 0
780 189 0
-781 -49 0
781 49 0
-782 -192 0
782 192 0
-783 -195 0
783 195 0
-784 -198 0
784 198 0
-785 -201 0
785 201 0
-786 -43 0
786 43 0
-787 -204 0
787 204 0
-788 -16 0
788 16 0
-789 -207 0
789 207 0
-790 -210 0
790 210 0
-791 -213 0
791 213 0
-792 -215 0
792 215 0
-793 -218 0
793 218 0
-794 -37 0
794 37 0
-795 -221 0
795 221 0
-796 -224 0
796 224 0
-797 -50 0
797 50 0
-798 -227 0
798 227 0
-799 -230 0
799 230 0
-800 -233 0
800 233 0
-801 -236 0
801 236 0
-802 -238 0
802 238 0
-803 -241 0
803 241 0
-804 -244 0
804 244 0
-805 -24 0
805 24 0
-806 -247 0
806 247 0
-807 -250 0
807 250 0
-808 -253 0
808 253 0
-809 -256 0
809 256 0
-810 -259 0
810 259 0
-811 -262 0
811 262 0
-812 -265 0
812 265 0
-813 -268 0
813 268 0
-814 -271 0
814 271 0
-815 -274 0
815 274 0
-816 -2 0
816 2 0
-817 -277 0
817 277 0
-818 -20 0
818 20 0
-819 -280 0
819 280 0
-820 -283 0
820 283 0
-821 -286 0
821 286 0
-822 -289 0
822 289 0
-823 -292 0
823 292 0
-824 -295 0
824 295 0
-825 -44 0
825 44 0
-826 -298 0
826 298 0
-827 -301 0
827 301 0
-828 -40 0
828 40 0
-829 -304 0
829 304 0
-830 -307 0
830 307 0
-831 -310 0
831 310 0
-832 -313 0
832 313 0
-833 -316 0
833 316 0
-834 -319 0
834 319 0
-835 -322 0
835 322 0
-836 -325 0
836 325 0
-837 -328 0
837 328 0
-838 -39 0
838 39 0
-839 -331 0
839 331 0
-840 -334 0
840 334 0
-841 -337 0
841 337 0
-842 -340 0
842 340 0
-843 -343 0
843 343 0
-844 -346 0
844 346 0
-845 -349 0
845 349 0
-846 -352 0
846 352 0
-847 -355 0
847 355 0
-848 -358 0
848 358 0
-849 -361 0
849 361 0
-850 -364 0
850 364 0
-851 -367 0
851 367 0
-852 -370 0
852 370 0
-853 -7 0
853 7 0
-854 -373 0
854 373 0
-855 -376 0
855 376 0
-856 -379 0
856 379 0
-857 -382 0
857 382 0
-858 -385 0
858 385 0
-859 -388 0
859 388 0
-860 -391 0
860 391 0
-861 -394 0
861 394 0
-862 -397 0
862 397 0
-863 -400 0
863 400 0
-864 -403 0
864 403 0
-865 -406 0
865 406 0
-866 -409 0
866 409 0
-867 -412 0
867 412 0
-868 -415 0
868 415 0
-869 -418 0
869 418 0
-870 -420 0
870 420 0
-871 -423 0
871 423 0
-872 -426 0
872 426 0
-873 -429 0
873 429 0
-874 -432 0
874 432 0
-875 -435 0
875 435 0
-876 -438 0
876 438 0
-877 -440 0
877 440 0
-878 -443 0
878 443 0
-879 -446 0
879 446 0
-880 -449 0
880 449 0
-881 -452 0
881 452 0
-882 -455 0
882 455 0
-883 -458 0
883 458 0
-884 -461 0
884 461 0
-885 -464 0
885 464 0
-886 -467 0
886 467 0
-887 -470 0
887 470 0
-888 -473 0
888 473 0
-889 -476 0
889 476 0
-890 -479 0
890 479 0
-891 -482 0
891 482 0
-892 -485 0
892 485 0
-893 -488 0
893 488 0
-894 -491 0
894 491 0
-895 -494 0
895 494 0
-896 -497 0
896 497 0
-897 -499 0
897 499 0
-898 -502 0
898 502 0
-899 -505 0
899 505 0
-900 -508 0
900 508 0
-901 -511 0
901 511 0
-902 -514 0
902 514 0
-903 -517 0
903 517 0
-904 -520 0
904 520 0
-905 -523 0
905 523 0
-906 -526 0
906 526 0
-907 -529 0
907 529 0
-908 -532 0
908 532 0
-909 -535 0
909 535 0
-910 -538 0
910 538 0
-911 -541 0
911 541 0
-912 -544 0
912 544 0
-913 -547 0
913 547 0
-914 -550 0
914 550 0
-915 -552 0
915 552 0
-916 -555 0
916 555 0
-917 -558 0
917 558 0
-918 -561 0
918 561 0
-919 -564 0
919 564 0
-920 -567 0
920 567 0
-921 -570 0
921 570 0
-922 -573 0
922 573 0
-923 -576 0
923 576 0
-924 -579 0
924 579 0
-925 -582 0
925 582 0
-926 -585 0
926 585 0
-927 -588 0
927 588 0
-928 -591 0
928 591 0
-929 -594 0
929 594 0
-930 -597 0
930 597 0
-931 -600 0
931 600 0
-932 -603 0
932 603 0
-933 -606 0
933 606 0
-934 -609 0
934 609 0
-935 -612 0
935 612 0
-936 -615 0
936 615 0
-937 -618 0
937 618 0
-938 -621 0
938 621 0
-939 -624 0
939 624 0
-940 -627 0
940 627 0
-941 -630 0
941 630 0
-942 -633 0
942 633 0
-943 -636 0
943 636 0
-944 -639 0
944 639 0
-945 -642 0
945 642 0
-946 -645 0
946 645 0
-947 -648 0
947 648 0
-948 -651 0
948 651 0
-949 -654 0
949 654 0
-950 -657 0
950 657 0
-951 -660 0
951 660 0
-952 -663 0
952 663 0
-953 -666 0
953 666 0
-954 -669 0
954 669 0
-955 -672 0
955 672 0
-956 -674 0
956 674 0
-957 -677 0
957 677 0
-958 -680 0
958 680 0
-959 -682 0
959 682 0
-960 -685 0
960 685 0
-961 -688 0
961 688 0
-962 -691 0
962 691 0
-963 -694 0
963 694 0
695 0
